
        $ From http://www.csplib.org/Problems/prob009/data/helmut.pdf
        $ Problem number 41
        $ Sequence length : 24
        language ESSENCE' 1.0
        letting sizemaster be 326
        letting sizes be sequence(1,6,10,11,14,15,18,24,29,32,43,44,53,56,63,65,71,80,83,101,104,106,119,142)
        